
%    +---------------+
% 10 | | | | | | | | |
% 9  | | | | | | | | |
% 8  | | | | | | | | |
% 7  | | | | | | | | |
% 6  | | | | | | | | |
% 5  | | | | |4| | | |
% 4  | |1|1| | | | | |
% 3  | |1|1| |3| |5| |
% 2  | |2| | | | | | |
% 1  | | | | | | |6| |
%    +---------------+
n=8;
m=10;
h=2;
%maxT=45;
boxNumber=6;
boxSideLen = [2, 1, 1, 1, 1, 1];
boxStartX  = [2, 2, 5, 5, 7, 7];
boxStartY  = [3, 2, 3, 5, 3, 1];
